# CLooG script generated automatically by PLUTO 0.12.0
# language: C
c

0 4

1
_PB_M _PB_N 

# Number of statements
4

# S1 (temp2 = 0;)
7 6
1 1 0 0 0 0 
1 -1 0 1 0 -1 
1 0 0 1 0 -1 
1 0 1 0 0 0 
1 0 -1 0 1 -1 
1 0 0 0 1 -1 
0 0 0 0 0 0 
0 0 0

# S2 (C[k][j] += alpha*B[i][j] * A[i][k];)
9 7
1 1 0 0 0 0 0 
1 -1 0 0 1 0 -1 
1 0 0 0 1 0 -1 
1 0 1 0 0 0 0 
1 0 -1 0 0 1 -1 
1 0 0 0 0 1 -1 
1 0 0 1 0 0 0 
1 1 0 -1 0 0 -1 
1 1 0 0 0 0 -1 
0 0 0

# S3 (temp2 += B[k][j] * A[i][k];)
9 7
1 1 0 0 0 0 0 
1 -1 0 0 1 0 -1 
1 0 0 0 1 0 -1 
1 0 1 0 0 0 0 
1 0 -1 0 0 1 -1 
1 0 0 0 0 1 -1 
1 0 0 1 0 0 0 
1 1 0 -1 0 0 -1 
1 1 0 0 0 0 -1 
0 0 0

# S4 (C[i][j] = beta * C[i][j] + alpha*B[i][j] * A[i][i] + alpha * temp2;)
7 6
1 1 0 0 0 0 
1 -1 0 1 0 -1 
1 0 0 1 0 -1 
1 0 1 0 0 0 
1 0 -1 0 1 -1 
1 0 0 0 1 -1 
0 0 0 0 0 0 
0 0 0

# we want cloog to set the iterator names
0

# Number of scattering functions
4

# T(S1)
4 10
0 1 0 0 0 -1 0 0 0 0 
0 0 1 0 0 0 -1 0 0 0 
0 0 0 1 0 0 0 0 0 0 
0 0 0 0 1 0 0 0 0 -1 

# T(S2)
4 11
0 1 0 0 0 -1 0 0 0 0 0 
0 0 1 0 0 0 -1 0 0 0 0 
0 0 0 1 0 0 0 -1 0 0 0 
0 0 0 0 1 0 0 0 0 0 0 

# T(S3)
4 11
0 1 0 0 0 -1 0 0 0 0 0 
0 0 1 0 0 0 -1 0 0 0 0 
0 0 0 1 0 0 0 -1 0 0 0 
0 0 0 0 1 0 0 0 0 0 -3 

# T(S4)
4 10
0 1 0 0 0 -1 0 0 0 0 
0 0 1 0 0 0 -1 0 0 0 
0 0 0 1 0 -1 0 0 0 0 
0 0 0 0 1 0 0 0 0 -2 

# we will set the scattering dimension names
4
t1 t2 t3 t4 
